c File: data_files/evolved_graphs/g3638.col
c
c Auto generated graph
c
p edge 100 870
e 1 27
e 1 37
e 1 48
e 1 72
e 1 88
e 1 89
e 1 99
e 2 5
e 2 13
e 2 55
e 2 61
e 2 71
e 2 84
e 2 86
e 2 90
e 3 11
e 3 15
e 3 35
e 3 36
e 3 48
e 3 50
e 3 56
e 3 61
e 3 65
e 3 68
e 3 78
e 3 82
e 3 84
e 3 89
e 3 97
e 4 8
e 4 20
e 4 30
e 4 35
e 4 37
e 4 50
e 4 79
e 5 8
e 5 33
e 5 46
e 5 62
e 5 66
e 5 78
e 6 9
e 6 15
e 6 20
e 6 24
e 6 34
e 6 37
e 6 47
e 6 55
e 6 63
e 6 67
e 6 71
e 6 72
e 6 81
e 6 94
e 7 28
e 7 48
e 7 49
e 7 66
e 7 70
e 8 33
e 8 48
e 8 53
e 8 62
e 8 63
e 8 73
e 8 88
e 9 11
e 9 17
e 9 26
e 9 33
e 9 48
e 9 66
e 9 71
e 9 90
e 9 93
e 10 20
e 10 32
e 10 40
e 10 46
e 10 52
e 10 64
e 10 65
e 10 80
e 10 91
e 10 97
e 11 20
e 11 44
e 11 52
e 11 53
e 11 58
e 11 75
e 11 85
e 11 88
e 11 90
e 11 93
e 11 94
e 12 14
e 12 67
e 13 24
e 13 33
e 13 43
e 13 54
e 13 69
e 13 77
e 13 78
e 13 83
e 14 25
e 14 32
e 14 34
e 14 51
e 14 61
e 14 63
e 14 86
e 15 21
e 15 24
e 15 28
e 15 29
e 15 35
e 15 42
e 15 43
e 15 56
e 15 65
e 15 72
e 15 76
e 15 77
e 15 83
e 15 85
e 15 90
e 16 20
e 16 22
e 16 34
e 16 35
e 16 37
e 16 52
e 16 54
e 16 68
e 16 100
e 17 18
e 17 34
e 17 38
e 17 42
e 17 43
e 17 60
e 17 76
e 17 80
e 17 82
e 17 98
e 17 99
e 18 25
e 18 27
e 18 30
e 18 35
e 18 36
e 18 41
e 18 55
e 18 60
e 18 74
e 18 82
e 18 87
e 18 88
e 18 89
e 19 27
e 19 33
e 19 45
e 19 57
e 19 63
e 19 74
e 19 75
e 20 29
e 20 40
e 20 83
e 20 91
e 21 25
e 21 31
e 21 63
e 21 85
e 21 95
e 22 26
e 22 32
e 22 35
e 22 37
e 22 52
e 22 71
e 22 72
e 22 75
e 22 77
e 22 81
e 22 85
e 22 90
e 22 95
e 23 33
e 23 35
e 23 36
e 23 38
e 23 49
e 23 60
e 23 62
e 23 64
e 23 68
e 23 73
e 23 78
e 23 84
e 23 86
e 23 87
e 23 94
e 23 95
e 23 97
e 23 98
e 23 99
e 23 100
e 24 25
e 24 28
e 24 29
e 24 35
e 24 53
e 24 62
e 24 65
e 24 71
e 24 74
e 24 75
e 24 76
e 24 78
e 24 80
e 24 83
e 24 85
e 24 86
e 24 88
e 24 89
e 24 90
e 24 95
e 24 97
e 24 99
e 25 33
e 25 60
e 25 65
e 25 67
e 25 73
e 25 76
e 25 81
e 25 84
e 25 86
e 25 89
e 25 94
e 26 34
e 26 47
e 26 48
e 26 61
e 26 63
e 26 74
e 26 77
e 26 79
e 26 81
e 26 82
e 26 85
e 26 86
e 26 88
e 26 89
e 26 93
e 26 96
e 26 97
e 26 98
e 27 41
e 27 55
e 27 66
e 27 68
e 27 69
e 27 72
e 27 73
e 27 76
e 27 78
e 27 92
e 27 96
e 27 97
e 27 100
e 28 42
e 28 43
e 28 47
e 28 49
e 28 57
e 28 63
e 28 64
e 28 65
e 28 66
e 28 68
e 28 73
e 28 84
e 28 89
e 28 91
e 28 95
e 28 96
e 28 97
e 28 100
e 29 33
e 29 51
e 29 61
e 29 63
e 29 64
e 29 69
e 29 79
e 29 80
e 29 83
e 29 84
e 29 87
e 29 88
e 29 90
e 29 94
e 29 95
e 29 96
e 29 97
e 29 98
e 30 37
e 30 42
e 30 64
e 30 67
e 30 73
e 30 74
e 30 79
e 30 82
e 30 83
e 30 85
e 30 87
e 30 88
e 30 92
e 30 96
e 30 98
e 30 99
e 31 34
e 31 38
e 31 40
e 31 50
e 31 57
e 31 58
e 31 64
e 31 67
e 31 78
e 31 82
e 31 83
e 31 86
e 31 87
e 31 89
e 31 90
e 31 94
e 31 95
e 31 97
e 32 34
e 32 38
e 32 40
e 32 62
e 32 68
e 32 69
e 32 71
e 32 81
e 32 85
e 32 91
e 32 93
e 32 100
e 33 44
e 33 61
e 33 62
e 33 64
e 33 66
e 33 72
e 33 73
e 33 80
e 33 81
e 33 82
e 33 89
e 33 97
e 33 98
e 33 99
e 34 36
e 34 42
e 34 49
e 34 51
e 34 53
e 34 59
e 34 65
e 34 68
e 34 70
e 34 75
e 34 77
e 34 81
e 34 83
e 34 85
e 34 89
e 34 91
e 34 95
e 34 96
e 34 97
e 34 100
e 35 38
e 35 63
e 35 68
e 35 71
e 35 82
e 35 87
e 35 95
e 35 99
e 35 100
e 36 46
e 36 53
e 36 65
e 36 66
e 36 72
e 36 73
e 36 78
e 36 79
e 36 83
e 36 84
e 36 93
e 36 94
e 36 100
e 37 38
e 37 43
e 37 44
e 37 53
e 37 56
e 37 62
e 37 73
e 37 74
e 37 78
e 37 83
e 37 84
e 37 90
e 37 91
e 37 92
e 37 97
e 37 99
e 38 45
e 38 57
e 38 59
e 38 64
e 38 73
e 38 74
e 38 76
e 38 83
e 38 90
e 38 95
e 38 97
e 38 98
e 39 47
e 39 49
e 39 65
e 39 70
e 39 73
e 39 77
e 39 85
e 39 94
e 39 95
e 39 96
e 39 97
e 39 98
e 39 99
e 40 41
e 40 49
e 40 62
e 40 66
e 40 68
e 40 70
e 40 79
e 40 82
e 40 88
e 40 89
e 40 93
e 40 94
e 40 95
e 40 96
e 40 97
e 40 98
e 40 99
e 41 47
e 41 52
e 41 59
e 41 60
e 41 64
e 41 68
e 41 73
e 41 78
e 41 79
e 41 80
e 41 81
e 41 83
e 41 93
e 41 95
e 41 98
e 42 50
e 42 63
e 42 69
e 42 72
e 42 74
e 42 83
e 42 98
e 42 99
e 43 44
e 43 53
e 43 62
e 43 67
e 43 77
e 43 79
e 43 81
e 43 88
e 43 89
e 43 93
e 43 95
e 43 99
e 44 48
e 44 53
e 44 61
e 44 62
e 44 67
e 44 68
e 44 69
e 44 71
e 44 88
e 44 93
e 44 96
e 44 97
e 44 98
e 44 100
e 45 48
e 45 54
e 45 57
e 45 63
e 45 65
e 45 67
e 45 70
e 45 76
e 45 77
e 45 78
e 45 88
e 45 93
e 45 99
e 46 57
e 46 62
e 46 64
e 46 66
e 46 67
e 46 69
e 46 70
e 46 71
e 46 76
e 46 83
e 46 85
e 46 86
e 46 87
e 46 94
e 46 95
e 46 97
e 47 58
e 47 61
e 47 68
e 47 69
e 47 72
e 47 78
e 47 80
e 47 82
e 47 84
e 47 90
e 47 95
e 47 96
e 47 97
e 47 98
e 47 99
e 48 62
e 48 63
e 48 64
e 48 66
e 48 67
e 48 68
e 48 70
e 48 72
e 48 77
e 48 87
e 48 89
e 48 93
e 48 95
e 48 96
e 48 98
e 48 99
e 48 100
e 49 50
e 49 67
e 49 72
e 49 76
e 49 77
e 49 88
e 49 90
e 49 95
e 49 96
e 49 97
e 49 98
e 49 99
e 50 57
e 50 61
e 50 66
e 50 68
e 50 71
e 50 73
e 50 74
e 50 77
e 50 85
e 50 95
e 50 96
e 50 97
e 50 99
e 51 65
e 51 66
e 51 74
e 51 78
e 51 79
e 51 80
e 51 81
e 51 83
e 51 87
e 51 95
e 51 96
e 51 97
e 51 98
e 51 99
e 51 100
e 52 54
e 52 59
e 52 64
e 52 65
e 52 73
e 52 77
e 52 85
e 52 88
e 52 90
e 52 95
e 52 96
e 52 97
e 52 98
e 52 100
e 53 59
e 53 60
e 53 69
e 53 85
e 53 89
e 53 90
e 53 91
e 53 95
e 53 98
e 53 99
e 54 61
e 54 66
e 54 78
e 54 82
e 54 86
e 54 92
e 54 95
e 54 96
e 54 98
e 54 99
e 54 100
e 55 61
e 55 70
e 55 74
e 55 75
e 55 78
e 55 80
e 55 82
e 55 95
e 55 96
e 55 99
e 56 61
e 56 63
e 56 68
e 56 70
e 56 74
e 56 80
e 56 86
e 56 90
e 56 97
e 56 99
e 57 60
e 57 63
e 57 64
e 57 70
e 57 73
e 57 77
e 57 78
e 57 81
e 57 92
e 57 96
e 57 98
e 58 63
e 58 71
e 58 75
e 58 78
e 58 83
e 58 87
e 58 90
e 58 94
e 58 96
e 58 99
e 58 100
e 59 64
e 59 67
e 59 72
e 59 73
e 59 74
e 59 75
e 59 77
e 59 79
e 59 84
e 59 94
e 59 98
e 59 99
e 60 62
e 60 68
e 60 69
e 60 70
e 60 71
e 60 85
e 60 86
e 60 88
e 60 96
e 60 97
e 60 98
e 60 99
e 60 100
e 61 65
e 61 66
e 61 77
e 61 80
e 61 83
e 61 84
e 61 89
e 61 93
e 62 75
e 62 78
e 62 83
e 62 84
e 62 89
e 62 90
e 62 95
e 62 97
e 62 98
e 62 99
e 62 100
e 63 72
e 63 74
e 63 78
e 63 86
e 63 88
e 63 95
e 63 96
e 64 68
e 64 73
e 64 75
e 64 77
e 64 79
e 64 83
e 64 89
e 64 95
e 64 97
e 64 99
e 64 100
e 65 81
e 65 94
e 65 95
e 65 97
e 65 98
e 65 100
e 66 77
e 66 86
e 66 88
e 66 89
e 66 90
e 66 92
e 66 93
e 66 96
e 66 97
e 66 99
e 67 69
e 67 74
e 67 75
e 67 88
e 67 91
e 67 93
e 67 99
e 68 74
e 68 80
e 69 74
e 69 80
e 69 84
e 69 96
e 69 98
e 69 99
e 70 75
e 70 79
e 70 81
e 70 94
e 70 99
e 71 72
e 71 74
e 71 97
e 71 98
e 72 73
e 72 80
e 72 88
e 72 93
e 72 96
e 72 98
e 72 99
e 73 74
e 73 90
e 74 88
e 74 96
e 74 98
e 75 90
e 75 95
e 76 91
e 76 93
e 76 94
e 76 95
e 76 98
e 77 86
e 77 95
e 77 97
e 77 98
e 78 97
e 78 98
e 79 99
e 81 83
e 81 96
e 81 97
e 82 96
e 82 98
e 82 99
e 83 87
e 83 91
e 83 94
e 83 96
e 84 86
e 84 88
e 84 97
e 84 99
e 84 100
e 85 98
e 86 94
e 86 98
e 86 99
e 87 91
e 88 90
e 88 91
e 88 98
e 88 100
e 89 90
e 89 97
e 89 98
e 91 93
e 91 94
e 91 95
e 91 97
e 91 100
e 92 95
e 92 99
e 92 100
e 93 98
e 93 100
e 94 97
e 94 98
e 95 96
e 96 97
e 96 99
